0 51 16 23 56 41 43 33 0
0 29 5 37 20 15 57 0
0 7 53 14 11 38 26 0
0 48 47 36 59 21 30 0
0 40 50 25 55 18 24 49 0
0 13 54 19 35 8 46 0
0 2 28 22 42 1 6 0
0 34 52 27 45 4 0
0 17 12 31 10 58 0
0 3 44 32 9 39 0
